(set-logic QF_SLIA)
(declare-fun var0 () String)
(assert (not (str.in_re var0 (re.++ ((_ re.loop 10 901) (re.++ (re.union (str.to_re ":aK") (re.union (str.to_re "o") (re.union (str.to_re "<-") (str.to_re "d-")))) (re.++ (re.union (str.to_re "\\5!") (re.union (str.to_re "/SG") (re.union (str.to_re "9") (str.to_re "CG+")))) (re.++ (re.union (str.to_re "?") (re.union (str.to_re "7") (re.union (str.to_re "l") (str.to_re "t")))) (re.union (str.to_re "~[R") (re.union (str.to_re "Aj") (re.union (str.to_re "Skc") (str.to_re "$")))))))) (re.++ ((_ re.loop 0 143) (re.++ (re.union (str.to_re "\u0022") (re.union (str.to_re "6") (re.union (str.to_re "gh") (str.to_re "2L")))) (re.++ (re.union (str.to_re "0,") (re.union (str.to_re "7e*") (re.union (str.to_re "K@A") (str.to_re "IcP")))) (re.++ (re.union (str.to_re "i-|") (re.union (str.to_re "]}T") (re.union (str.to_re "FH") (str.to_re "+Rc")))) (re.union (str.to_re "<?7") (re.union (str.to_re "{jk") (re.union (str.to_re "bv5") (str.to_re "?")))))))) (re.++ ((_ re.loop 5 319) (re.++ (re.union (str.to_re "5") (re.union (str.to_re "mO{") (re.union (str.to_re "]2|") (str.to_re "y,")))) (re.++ (re.union (str.to_re "{a") (re.union (str.to_re "Vc") (re.union (str.to_re "#mx") (str.to_re "D")))) (re.++ (re.union (str.to_re "6=X") (re.union (str.to_re "C") (re.union (str.to_re "Z") (str.to_re "Z!H")))) (re.union (str.to_re "g") (re.union (str.to_re "h") (re.union (str.to_re "GNM") (str.to_re ".h}")))))))) ((_ re.loop 14 860) (re.++ (re.union (str.to_re "g*@") (re.union (str.to_re "G") (re.union (str.to_re "D)k") (str.to_re "l\\+")))) (re.++ (re.union (str.to_re "4~") (re.union (str.to_re "`") (re.union (str.to_re "Ato") (str.to_re "!")))) (re.++ (re.union (str.to_re "%c") (re.union (str.to_re "Lh") (re.union (str.to_re "T") (str.to_re "$6")))) (re.union (str.to_re "-8") (re.union (str.to_re "4qr") (re.union (str.to_re "jC") (str.to_re "i"))))))))))))))
(assert (not (str.in_re var0 (re.++ ((_ re.loop 11 537) (re.++ (re.union (str.to_re "I") (re.union (str.to_re "W") (re.union (str.to_re "1") (str.to_re "!")))) (re.++ (re.union (str.to_re "LA") (re.union (str.to_re "BVr") (re.union (str.to_re "\u0022") (str.to_re "MB")))) (re.++ (re.union (str.to_re "u") (re.union (str.to_re "KkZ") (re.union (str.to_re "c") (str.to_re "9:L")))) (re.union (str.to_re "P'/") (re.union (str.to_re "y") (re.union (str.to_re "b4") (str.to_re "2]+")))))))) (re.++ ((_ re.loop 16 384) (re.++ (re.union (str.to_re "gjN") (re.union (str.to_re "O") (re.union (str.to_re "pU") (str.to_re "I5A")))) (re.++ (re.union (str.to_re "YC") (re.union (str.to_re ";O") (re.union (str.to_re "n%;") (str.to_re "z2\u0022")))) (re.++ (re.union (str.to_re "hVF") (re.union (str.to_re "&S") (re.union (str.to_re "fF") (str.to_re "$vG")))) (re.union (str.to_re "!") (re.union (str.to_re "Mb#") (re.union (str.to_re "=") (str.to_re "=V`")))))))) (re.++ ((_ re.loop 3 977) (re.++ (re.union (str.to_re "4z2") (re.union (str.to_re "T{;") (re.union (str.to_re "bA") (str.to_re "`bN")))) (re.++ (re.union (str.to_re "#Ng") (re.union (str.to_re "&Y") (re.union (str.to_re "Vew") (str.to_re "}>")))) (re.++ (re.union (str.to_re "B") (re.union (str.to_re "<") (re.union (str.to_re "%[^") (str.to_re "_P")))) (re.union (str.to_re "i") (re.union (str.to_re "2/_") (re.union (str.to_re "CIM") (str.to_re "e")))))))) ((_ re.loop 10 867) (re.++ (re.union (str.to_re "7") (re.union (str.to_re "mYC") (re.union (str.to_re "yW7") (str.to_re "U")))) (re.++ (re.union (str.to_re "P-") (re.union (str.to_re "1") (re.union (str.to_re "3") (str.to_re "VA")))) (re.++ (re.union (str.to_re "\\") (re.union (str.to_re "3") (re.union (str.to_re "|") (str.to_re "X")))) (re.union (str.to_re "{") (re.union (str.to_re "%q<") (re.union (str.to_re "8Uo") (str.to_re "S8z"))))))))))))))
(assert (not (str.in_re var0 (re.++ (re.* re.allchar) (re.++ (re.union (str.to_re "<") (re.union (str.to_re ">") (re.union (str.to_re "'") (re.union (str.to_re "\u0022") (str.to_re "&"))))) (re.* re.allchar))))))
(assert (<= 50 (str.len var0)))
(check-sat)
(get-model)
